39 41
29
3 3 19 6
3 4 23 9
3 5 36 19
3 6 19 0
3 7 33 26
3 8 32 33
3 9 36 24
3 10 33 16
3 11 29 30
3 15 26 0
4 3 19 27
4 4 15 16
4 5 15 20
4 6 19 9
4 8 35 33
4 9 22 0
4 12 15 25
4 15 29 15
4 16 15 0
5 3 34 0
5 4 29 6
5 5 29 10
5 6 29 0
5 8 24 33
5 10 19 15
5 11 19 30
5 13 34 3
5 18 24 15
15 39 0 0
